myproject/instances/20nodes/rnd15_20.tsp
NAME : rnd15_20.tsp
TYPE : TSP
DIMENSION : 20
EDGE_WEIGHT_TYPE : EUC_2D
NODE_COORD_SECTION
1 926 129
2 89 504
3 483 642
4 418 867
5 969 67
6 389 59
7 359 619
8 868 210
9 280 656
10 601 128
11 627 500
12 886 81
13 199 359
14 841 75
15 232 292
16 738 947
17 687 52
18 615 265
19 63 870
20 649 341
