myproject/instances/20nodes/rnd15_20.opt.tour
NAME : rnd15_20.tsp.tsp.optbc.tour
TYPE : TOUR
DIMENSION : 20
TOUR_SECTION
1
6
8
12
9
4
2
3
5
16
17
14
18
15
10
13
19
11
20
7
-1